p cnf 152 135
-1 124 -125 -126 -128 -129 -130 -131 0 
-2 66 117 125 -124 -126 -128 -129 -130 -131 0 
-3 124 -125 -126 -128 -129 -130 -131 0 
-4 14 31 38 78 86 90 110 121 124 -125 -126 -128 -129 -130 -131 0 
-5 8 34 53 70 74 -6 17 24 43 93 101 116 124 -125 -126 -128 -129 -130 -131 0 
-6 17 24 43 93 101 116 -7 55 124 -125 -126 -128 -129 -130 -131 0 
-8 5 34 53 70 74 -7 55 124 -125 -126 -128 -129 -130 -131 0 
-9 83 97 124 -125 -126 -128 -129 -130 -131 0 
-10 126 -124 -125 -128 -129 -130 -131 0 
-7 55 -11 32 77 108 123 -12 124 -125 -126 -128 -129 -130 -131 0 
-13 124 -125 -126 -128 -129 -130 -131 0 
-14 4 31 38 78 86 90 110 121 124 -125 -126 -128 -129 -130 -131 0 
-5 8 34 53 70 74 124 -125 -126 -128 -129 -130 -131 0 
-15 124 -125 -126 -128 -129 -130 -131 0 
-6 17 24 43 93 101 116 124 -125 -126 -128 -129 -130 -131 0 
-16 -17 6 24 43 93 101 116 -7 55 124 -125 -126 -128 -129 -130 -131 0 
-18 39 79 -19 23 44 47 59 61 109 124 -125 -126 -128 -129 -130 -131 0 
-20 88 -21 124 -125 -126 -128 -129 -130 -131 0 
-18 39 79 -6 17 24 43 93 101 116 124 -125 -126 -128 -129 -130 -131 0 
-8 5 34 53 70 74 -22 124 -125 -126 -128 -129 -130 -131 0 
-14 4 31 38 78 86 90 110 121 -6 17 24 43 93 101 116 124 -125 -126 -128 -129 -130 -131 0 
-23 19 44 47 59 61 109 124 -125 -126 -128 -129 -130 -131 0 
-24 6 17 43 93 101 116 124 -125 -126 -128 -129 -130 -131 0 
-25 124 -125 -126 -128 -129 -130 -131 0 
-26 124 -125 -126 -128 -129 -130 -131 0 
-27 51 69 89 103 124 -125 -126 -128 -129 -130 -131 0 
-28 124 -125 -126 -128 -129 -130 -131 0 
-29 64 71 113 127 -124 -125 -126 -128 -129 -130 -131 0 
-30 -31 4 14 38 78 86 90 110 121 -6 17 24 43 93 101 116 124 -125 -126 -128 -129 -130 -131 0 
-6 17 24 43 93 101 116 -32 11 77 108 123 124 -125 -126 -128 -129 -130 -131 0 
-33 -22 124 -125 -126 -128 -129 -130 -131 0 
-34 5 8 53 70 74 124 -125 -126 -128 -129 -130 -131 0 
-35 124 -125 -126 -128 -129 -130 -131 0 
-36 128 -124 -125 -126 -129 -130 -131 0 
-37 124 -125 -126 -128 -129 -130 -131 0 
-38 4 14 31 78 86 90 110 121 124 -125 -126 -128 -129 -130 -131 0 
-30 -39 18 79 -8 5 34 53 70 74 124 -125 -126 -128 -129 -130 -131 0 
-16 -40 58 -33 124 -125 -126 -128 -129 -130 -131 0 
-41 124 -125 -126 -128 -129 -130 -131 0 
-42 124 -125 -126 -128 -129 -130 -131 0 
-43 6 17 24 93 101 116 124 -125 -126 -128 -129 -130 -131 0 
-44 19 23 47 59 61 109 124 -125 -126 -128 -129 -130 -131 0 
-45 124 -125 -126 -128 -129 -130 -131 0 
-46 124 -125 -126 -128 -129 -130 -131 0 
-47 19 23 44 59 61 109 -48 124 -125 -126 -128 -129 -130 -131 0 
-49 68 72 95 105 111 112 129 -124 -125 -126 -128 -130 -131 0 
-50 129 -124 -125 -126 -128 -130 -131 0 
-51 27 69 89 103 124 -125 -126 -128 -129 -130 -131 0 
-52 124 -125 -126 -128 -129 -130 -131 0 
-53 5 8 34 70 74 129 -124 -125 -126 -128 -130 -131 0 
-54 91 124 -125 -126 -128 -129 -130 -131 0 
-6 17 24 43 93 101 116 -55 7 -36 124 -125 -126 -128 -129 -130 -131 0 
-8 5 34 53 70 74 124 -125 -126 -128 -129 -130 -131 0 
-56 -11 32 77 108 123 -36 124 -125 -126 -128 -129 -130 -131 0 
-57 124 -125 -126 -128 -129 -130 -131 0 
-58 40 124 -125 -126 -128 -129 -130 -131 0 
-59 19 23 44 47 61 109 -36 124 -125 -126 -128 -129 -130 -131 0 
-60 124 -125 -126 -128 -129 -130 -131 0 
-61 19 23 44 47 59 109 124 -125 -126 -128 -129 -130 -131 0 
-7 55 -36 124 -125 -126 -128 -129 -130 -131 0 
-62 130 -124 -125 -126 -128 -129 -131 0 
-63 122 124 -125 -126 -128 -129 -130 -131 0 
-64 29 71 113 131 -124 -125 -126 -128 -129 -130 0 
-30 -65 128 -124 -125 -126 -129 -130 -131 0 
-66 2 117 132 -124 -125 -126 -128 -129 -130 -131 -6 -17 -24 -43 -93 -101 -116 0 
-7 55 -11 32 77 108 123 -48 124 -125 -126 -128 -129 -130 -131 0 
-67 -68 49 72 95 105 111 112 130 -124 -125 -126 -128 -129 -131 0 
-69 27 51 89 103 130 -124 -125 -126 -128 -129 -131 0 
-60 -22 124 -125 -126 -128 -129 -130 -131 0 
-70 5 8 34 53 74 -21 124 -125 -126 -128 -129 -130 -131 0 
-6 17 24 43 93 101 116 -8 5 34 53 70 74 124 -125 -126 -128 -129 -130 -131 0 
-71 29 64 113 124 -125 -126 -128 -129 -130 -131 0 
-72 49 68 95 105 111 112 124 -125 -126 -128 -129 -130 -131 0 
-73 76 -74 5 8 34 53 70 -38 4 14 31 78 86 90 110 121 124 -125 -126 -128 -129 -130 -131 0 
-75 -38 4 14 31 78 86 90 110 121 -22 124 -125 -126 -128 -129 -130 -131 0 
-76 73 -22 -36 124 -125 -126 -128 -129 -130 -131 0 
-37 -75 -77 11 32 108 123 124 -125 -126 -128 -129 -130 -131 0 
-37 -22 124 -125 -126 -128 -129 -130 -131 0 
-37 -75 -22 124 -125 -126 -128 -129 -130 -131 0 
-76 73 -22 124 -125 -126 -128 -129 -130 -131 0 
-37 -77 11 32 108 123 124 -125 -126 -128 -129 -130 -131 0 
-78 4 14 31 38 86 90 110 121 -60 -22 124 -125 -126 -128 -129 -130 -131 0 
-79 18 39 133 -124 -125 -126 -128 -129 -130 -131 0 
-80 134 -124 -125 -126 -128 -129 -130 -131 -15 0 
-81 100 124 -125 -126 -128 -129 -130 -131 0 
-82 124 -125 -126 -128 -129 -130 -131 0 
-83 9 97 124 -125 -126 -128 -129 -130 -131 0 
-84 124 -125 -126 -128 -129 -130 -131 0 
-85 127 -124 -125 -126 -128 -129 -130 -131 0 
-86 4 14 31 38 78 90 110 121 -87 135 -124 -125 -126 -128 -129 -130 -131 0 
-88 20 129 -124 -125 -126 -128 -130 -131 0 
-89 27 51 69 103 136 -124 -125 -126 -128 -129 -130 -131 0 
-90 4 14 31 38 78 86 110 121 -91 54 137 -124 -125 -126 -128 -129 -130 -131 0 
-92 -93 6 17 24 43 101 116 129 -124 -125 -126 -128 -130 -131 0 
-94 -95 49 68 72 105 111 112 124 -125 -126 -128 -129 -130 -131 0 
-96 138 -124 -125 -126 -128 -129 -130 -131 -120 0 
-97 9 83 139 -124 -125 -126 -128 -129 -130 -131 0 
-98 140 -124 -125 -126 -128 -129 -130 -131 0 
-99 141 -124 -125 -126 -128 -129 -130 -131 0 
-100 81 142 -124 -125 -126 -128 -129 -130 -131 0 
-101 6 17 24 43 93 116 143 -124 -125 -126 -128 -129 -130 -131 0 
-102 144 -124 -125 -126 -128 -129 -130 -131 0 
-99 145 -124 -125 -126 -128 -129 -130 -131 0 
-51 27 69 89 103 146 -124 -125 -126 -128 -129 -130 -131 -94 0 
-103 27 51 69 89 131 -124 -125 -126 -128 -129 -130 0 
-104 147 -124 -125 -126 -128 -129 -130 -131 0 
-98 148 -124 -125 -126 -128 -129 -130 -131 0 
-105 49 68 72 95 111 112 124 -125 -126 -128 -129 -130 -131 0 
-98 149 -124 -125 -126 -128 -129 -130 -131 0 
-100 81 150 -124 -125 -126 -128 -129 -130 -131 0 
-106 130 -124 -125 -126 -128 -129 -131 0 
-107 124 -125 -126 -128 -129 -130 -131 0 
-108 11 32 77 123 127 -124 -125 -126 -128 -129 -130 -131 0 
-109 19 23 44 47 59 61 146 -124 -125 -126 -128 -129 -130 -131 -94 0 
-110 4 14 31 38 78 86 90 121 -44 19 23 47 59 61 109 133 -124 -125 -126 -128 -129 -130 -131 0 
-111 49 68 72 95 105 112 146 -124 -125 -126 -128 -129 -130 -131 -94 0 
-110 4 14 31 38 78 86 90 121 -44 19 23 47 59 61 109 134 -124 -125 -126 -128 -129 -130 -131 -15 0 
-7 55 124 -125 -126 -128 -129 -130 -131 0 
-21 -32 11 77 108 123 -36 124 -125 -126 -128 -129 -130 -131 0 
-112 49 68 72 95 105 111 -113 29 64 71 127 -124 -125 -126 -128 -129 -130 -131 0 
-114 130 -124 -125 -126 -128 -129 -131 0 
-115 151 -124 -125 -126 -128 -129 -130 -131 0 
-116 6 17 24 43 93 101 130 -124 -125 -126 -128 -129 -131 0 
-68 49 72 95 105 111 112 130 -124 -125 -126 -128 -129 -131 0 
-117 2 66 128 -124 -125 -126 -129 -130 -131 0 
-73 76 -118 128 -124 -125 -126 -129 -130 -131 0 
-119 128 -124 -125 -126 -129 -130 -131 0 
-118 128 -124 -125 -126 -129 -130 -131 0 
-120 -121 4 14 31 38 78 86 90 110 128 -124 -125 -126 -129 -130 -131 0 
-121 4 14 31 38 78 86 90 110 128 -124 -125 -126 -129 -130 -131 0 
-30 152 -124 -125 -126 -128 -129 -130 -131 -2 -66 -117 0 
-3 -6 17 24 43 93 101 116 124 -125 -126 -128 -129 -130 -131 0 
-70 5 8 34 53 74 -21 -36 124 -125 -126 -128 -129 -130 -131 0 
-122 63 124 -125 -126 -128 -129 -130 -131 0 
-123 11 32 77 108 -36 124 -125 -126 -128 -129 -130 -131 0 
